100
1 2
1 3
1 4
1 5
1 11
1 12
1 17
1 18
1 19
1 22
1 23
1 25
1 26
1 28
1 30
1 32
1 34
1 35
1 37
1 40
1 41
1 43
1 44
1 45
1 46
1 47
1 50
1 52
1 54
1 57
1 58
1 62
1 68
1 69
1 70
1 71
1 74
1 76
1 80
1 84
1 85
1 86
1 89
1 92
1 94
1 97
1 99
1 100
2 3
2 5
2 7
2 8
2 9
2 10
2 13
2 15
2 16
2 19
2 20
2 21
2 23
2 25
2 26
2 30
2 31
2 35
2 36
2 38
2 39
2 42
2 48
2 49
2 52
2 53
2 57
2 58
2 59
2 61
2 63
2 64
2 69
2 70
2 71
2 72
2 81
2 83
2 84
2 87
2 92
2 93
2 96
2 98
2 99
3 5
3 6
3 8
3 9
3 12
3 13
3 14
3 15
3 16
3 17
3 20
3 21
3 22
3 24
3 29
3 30
3 31
3 34
3 37
3 40
3 41
3 42
3 50
3 51
3 53
3 54
3 56
3 57
3 58
3 59
3 60
3 61
3 62
3 63
3 64
3 66
3 68
3 69
3 71
3 72
3 74
3 76
3 77
3 78
3 79
3 80
3 82
3 83
3 87
3 89
3 90
3 95
3 96
3 97
3 100
4 6
4 9
4 10
4 12
4 15
4 16
4 21
4 22
4 25
4 29
4 32
4 33
4 36
4 37
4 42
4 45
4 46
4 47
4 50
4 51
4 53
4 54
4 55
4 56
4 58
4 59
4 61
4 67
4 69
4 72
4 73
4 74
4 77
4 80
4 81
4 82
4 83
4 84
4 85
4 86
4 88
4 92
4 93
4 94
4 98
5 6
5 8
5 10
5 13
5 14
5 15
5 17
5 19
5 21
5 22
5 25
5 27
5 29
5 30
5 35
5 36
5 37
5 40
5 41
5 43
5 44
5 48
5 49
5 52
5 55
5 56
5 58
5 60
5 61
5 62
5 66
5 67
5 72
5 75
5 76
5 77
5 78
5 80
5 81
5 83
5 89
5 91
5 92
5 96
5 97
5 98
5 99
5 100
6 8
6 13
6 14
6 15
6 17
6 18
6 19
6 20
6 21
6 23
6 24
6 27
6 28
6 29
6 30
6 32
6 34
6 35
6 36
6 37
6 44
6 45
6 49
6 51
6 55
6 61
6 64
6 66
6 67
6 68
6 69
6 70
6 76
6 80
6 83
6 85
6 89
6 90
6 91
6 93
6 95
6 96
6 99
6 100
7 8
7 9
7 11
7 12
7 13
7 14
7 15
7 20
7 22
7 24
7 25
7 28
7 29
7 31
7 36
7 42
7 44
7 49
7 50
7 53
7 57
7 59
7 66
7 68
7 69
7 70
7 72
7 73
7 74
7 76
7 82
7 84
7 85
7 86
7 87
7 88
7 91
7 94
7 96
8 11
8 13
8 14
8 15
8 16
8 17
8 18
8 19
8 24
8 25
8 29
8 32
8 34
8 35
8 36
8 38
8 39
8 41
8 42
8 46
8 49
8 50
8 53
8 55
8 58
8 68
8 70
8 72
8 74
8 76
8 79
8 80
8 81
8 82
8 83
8 86
8 87
8 89
8 91
8 92
8 94
8 95
8 96
8 99
8 100
9 12
9 13
9 15
9 18
9 20
9 21
9 22
9 23
9 26
9 27
9 29
9 36
9 39
9 42
9 44
9 46
9 47
9 51
9 55
9 57
9 58
9 59
9 60
9 61
9 62
9 64
9 65
9 68
9 69
9 71
9 72
9 74
9 75
9 76
9 78
9 80
9 84
9 85
9 89
9 90
9 93
9 94
9 96
9 98
9 99
10 11
10 12
10 13
10 15
10 17
10 18
10 19
10 20
10 21
10 22
10 23
10 26
10 28
10 31
10 33
10 35
10 37
10 38
10 41
10 42
10 43
10 46
10 52
10 53
10 58
10 61
10 63
10 65
10 66
10 68
10 69
10 70
10 73
10 76
10 78
10 81
10 82
10 83
10 84
10 85
10 86
10 90
10 93
10 94
10 95
10 96
10 97
10 98
10 99
11 14
11 16
11 17
11 19
11 22
11 23
11 24
11 25
11 26
11 27
11 28
11 29
11 30
11 36
11 37
11 38
11 39
11 41
11 43
11 44
11 46
11 48
11 49
11 50
11 54
11 58
11 59
11 65
11 66
11 68
11 71
11 73
11 75
11 77
11 78
11 79
11 82
11 83
11 87
11 88
11 89
11 90
11 91
11 92
11 94
11 97
11 98
12 15
12 16
12 17
12 19
12 21
12 26
12 27
12 28
12 29
12 30
12 31
12 32
12 33
12 34
12 35
12 38
12 39
12 41
12 45
12 46
12 48
12 49
12 50
12 52
12 55
12 56
12 57
12 60
12 61
12 62
12 63
12 66
12 68
12 69
12 76
12 77
12 81
12 82
12 83
12 84
12 88
12 91
12 95
12 96
12 98
13 14
13 15
13 17
13 18
13 21
13 23
13 24
13 27
13 33
13 36
13 38
13 39
13 40
13 41
13 43
13 44
13 46
13 47
13 48
13 49
13 50
13 54
13 58
13 59
13 62
13 63
13 65
13 66
13 67
13 69
13 70
13 71
13 72
13 73
13 74
13 77
13 79
13 81
13 87
13 91
13 93
13 94
14 17
14 18
14 20
14 23
14 26
14 30
14 31
14 35
14 37
14 41
14 44
14 47
14 48
14 49
14 50
14 53
14 54
14 55
14 56
14 57
14 60
14 64
14 65
14 67
14 68
14 72
14 73
14 77
14 83
14 84
14 85
14 87
14 91
14 92
14 94
14 96
14 98
14 100
15 16
15 18
15 19
15 20
15 22
15 23
15 25
15 28
15 33
15 34
15 35
15 36
15 40
15 41
15 42
15 44
15 46
15 49
15 51
15 53
15 54
15 58
15 59
15 60
15 61
15 62
15 65
15 66
15 68
15 69
15 71
15 72
15 73
15 74
15 75
15 78
15 79
15 82
15 83
15 86
15 87
15 88
15 89
15 92
15 94
15 95
15 97
15 98
15 100
16 17
16 19
16 22
16 23
16 27
16 30
16 34
16 35
16 36
16 37
16 41
16 42
16 43
16 50
16 55
16 56
16 57
16 58
16 59
16 60
16 61
16 62
16 63
16 65
16 68
16 70
16 72
16 74
16 77
16 78
16 79
16 80
16 81
16 83
16 87
16 88
16 90
16 91
16 93
16 94
16 95
16 98
17 19
17 21
17 23
17 25
17 28
17 32
17 33
17 34
17 35
17 38
17 43
17 44
17 45
17 47
17 48
17 52
17 54
17 55
17 61
17 63
17 64
17 65
17 70
17 71
17 72
17 76
17 77
17 80
17 85
17 87
17 91
17 92
17 95
17 100
18 19
18 22
18 25
18 26
18 28
18 29
18 32
18 33
18 35
18 36
18 38
18 39
18 41
18 44
18 49
18 50
18 51
18 52
18 53
18 54
18 55
18 56
18 57
18 58
18 60
18 61
18 68
18 69
18 70
18 78
18 80
18 81
18 82
18 83
18 84
18 87
18 88
18 89
18 93
18 94
18 96
19 22
19 23
19 24
19 25
19 30
19 33
19 34
19 35
19 36
19 38
19 43
19 44
19 47
19 48
19 51
19 53
19 54
19 57
19 58
19 59
19 60
19 61
19 63
19 65
19 66
19 67
19 68
19 69
19 70
19 71
19 75
19 76
19 79
19 81
19 82
19 85
19 89
19 90
19 91
19 92
19 93
19 95
19 96
19 99
19 100
20 21
20 22
20 23
20 25
20 26
20 27
20 29
20 30
20 32
20 34
20 35
20 36
20 41
20 43
20 45
20 47
20 49
20 50
20 51
20 52
20 60
20 61
20 63
20 65
20 67
20 68
20 69
20 79
20 82
20 83
20 85
20 88
20 90
20 91
20 92
20 94
20 95
20 97
21 24
21 26
21 27
21 29
21 31
21 32
21 33
21 34
21 38
21 40
21 41
21 43
21 45
21 48
21 49
21 51
21 52
21 54
21 55
21 56
21 57
21 59
21 61
21 63
21 65
21 66
21 68
21 69
21 71
21 72
21 73
21 74
21 80
21 81
21 83
21 84
21 86
21 87
21 88
21 89
21 90
21 91
21 92
21 93
21 94
21 95
21 100
22 25
22 26
22 28
22 29
22 30
22 31
22 33
22 34
22 37
22 38
22 40
22 41
22 43
22 51
22 52
22 54
22 58
22 59
22 63
22 65
22 66
22 67
22 69
22 72
22 76
22 78
22 79
22 81
22 85
22 86
22 88
22 89
22 90
22 92
22 93
22 94
22 97
22 98
23 25
23 26
23 28
23 29
23 33
23 36
23 37
23 38
23 43
23 44
23 45
23 46
23 47
23 50
23 54
23 55
23 56
23 58
23 63
23 64
23 65
23 66
23 67
23 71
23 73
23 76
23 78
23 80
23 83
23 85
23 86
23 87
23 88
23 92
23 94
23 95
23 96
23 99
24 25
24 26
24 28
24 29
24 32
24 33
24 35
24 39
24 40
24 47
24 48
24 52
24 53
24 54
24 57
24 58
24 62
24 66
24 68
24 69
24 71
24 74
24 75
24 79
24 80
24 81
24 86
24 87
24 88
24 91
24 93
24 95
24 96
24 97
24 98
24 100
25 30
25 32
25 37
25 38
25 39
25 40
25 41
25 42
25 46
25 47
25 50
25 53
25 56
25 61
25 63
25 64
25 65
25 68
25 73
25 75
25 77
25 78
25 79
25 80
25 81
25 83
25 84
25 86
25 89
25 91
25 93
25 94
25 95
25 97
25 99
26 31
26 33
26 34
26 36
26 38
26 40
26 44
26 45
26 46
26 47
26 49
26 52
26 54
26 56
26 57
26 60
26 62
26 63
26 64
26 65
26 71
26 76
26 78
26 81
26 82
26 84
26 86
26 87
26 88
26 90
26 96
26 100
27 28
27 30
27 31
27 32
27 33
27 37
27 38
27 40
27 41
27 44
27 45
27 47
27 48
27 49
27 50
27 55
27 57
27 58
27 60
27 61
27 66
27 67
27 69
27 70
27 71
27 72
27 73
27 83
27 85
27 86
27 87
27 88
27 91
27 96
27 97
28 29
28 30
28 31
28 33
28 34
28 35
28 37
28 38
28 40
28 41
28 42
28 46
28 47
28 49
28 50
28 51
28 53
28 54
28 59
28 65
28 69
28 70
28 73
28 74
28 77
28 78
28 83
28 86
28 87
28 88
28 91
28 92
28 93
28 94
28 95
28 97
28 98
28 99
29 31
29 36
29 37
29 38
29 40
29 41
29 43
29 45
29 48
29 49
29 50
29 52
29 53
29 55
29 56
29 60
29 63
29 65
29 69
29 70
29 71
29 72
29 73
29 74
29 79
29 81
29 82
29 84
29 87
29 88
29 89
29 90
29 91
29 93
29 94
29 95
29 98
29 99
30 31
30 36
30 38
30 39
30 40
30 42
30 45
30 46
30 47
30 49
30 51
30 52
30 59
30 61
30 63
30 66
30 72
30 75
30 76
30 77
30 81
30 82
30 83
30 88
30 89
30 90
30 91
30 92
30 95
30 97
30 100
31 33
31 34
31 36
31 37
31 38
31 39
31 41
31 43
31 44
31 45
31 48
31 50
31 55
31 60
31 61
31 62
31 64
31 67
31 73
31 74
31 75
31 77
31 79
31 82
31 83
31 85
31 86
31 87
31 88
31 90
31 91
31 95
31 96
31 100
32 33
32 35
32 38
32 40
32 41
32 42
32 43
32 45
32 46
32 48
32 49
32 50
32 52
32 54
32 55
32 56
32 58
32 59
32 61
32 62
32 63
32 64
32 67
32 70
32 71
32 75
32 76
32 77
32 82
32 83
32 84
32 87
32 88
32 90
32 93
32 94
32 96
32 97
32 98
32 100
33 37
33 42
33 44
33 45
33 47
33 49
33 51
33 53
33 55
33 56
33 57
33 58
33 59
33 60
33 61
33 62
33 63
33 64
33 66
33 67
33 69
33 70
33 71
33 73
33 74
33 75
33 79
33 85
33 86
33 88
33 89
33 90
33 93
33 94
33 95
33 99
34 35
34 36
34 38
34 40
34 43
34 44
34 46
34 47
34 48
34 52
34 54
34 57
34 60
34 65
34 66
34 69
34 70
34 71
34 73
34 76
34 77
34 79
34 81
34 83
34 85
34 88
34 93
34 94
34 97
34 99
34 100
35 36
35 39
35 40
35 44
35 45
35 47
35 48
35 49
35 50
35 56
35 58
35 62
35 63
35 65
35 66
35 67
35 69
35 70
35 72
35 74
35 75
35 76
35 77
35 78
35 79
35 81
35 85
35 89
35 90
35 92
35 98
35 99
35 100
36 37
36 41
36 44
36 45
36 46
36 48
36 52
36 53
36 55
36 56
36 58
36 60
36 62
36 63
36 64
36 66
36 67
36 70
36 71
36 73
36 78
36 79
36 80
36 83
36 84
36 85
36 87
36 88
36 90
36 92
36 93
36 96
36 97
36 98
36 99
36 100
37 39
37 43
37 44
37 45
37 46
37 47
37 48
37 50
37 51
37 52
37 54
37 56
37 59
37 60
37 67
37 69
37 71
37 73
37 75
37 77
37 80
37 82
37 84
37 86
37 87
37 88
37 89
37 90
37 91
37 94
37 96
37 97
37 98
37 99
38 39
38 40
38 42
38 46
38 48
38 50
38 51
38 52
38 53
38 55
38 56
38 57
38 59
38 60
38 62
38 63
38 65
38 68
38 70
38 71
38 72
38 75
38 76
38 78
38 79
38 80
38 83
38 84
38 86
38 89
38 90
38 91
38 92
38 93
38 94
38 97
38 100
39 41
39 50
39 51
39 53
39 54
39 56
39 59
39 61
39 63
39 66
39 67
39 70
39 71
39 73
39 74
39 76
39 77
39 78
39 82
39 83
39 84
39 89
39 90
39 91
39 94
39 96
39 98
40 41
40 43
40 47
40 48
40 49
40 51
40 52
40 53
40 56
40 57
40 58
40 61
40 63
40 65
40 67
40 70
40 72
40 74
40 78
40 79
40 82
40 85
40 91
40 94
40 96
40 98
40 99
40 100
41 42
41 45
41 46
41 47
41 48
41 50
41 51
41 52
41 53
41 54
41 56
41 58
41 59
41 61
41 63
41 65
41 66
41 67
41 68
41 71
41 72
41 73
41 75
41 76
41 77
41 78
41 79
41 81
41 84
41 86
41 91
41 92
41 93
41 94
41 95
41 96
41 97
41 99
41 100
42 44
42 46
42 49
42 51
42 52
42 53
42 63
42 65
42 66
42 67
42 68
42 69
42 71
42 72
42 73
42 74
42 75
42 78
42 79
42 80
42 82
42 84
42 86
42 87
42 88
42 90
42 93
42 94
42 95
42 96
42 99
43 44
43 45
43 47
43 51
43 53
43 57
43 58
43 60
43 61
43 62
43 64
43 65
43 66
43 67
43 69
43 71
43 72
43 73
43 74
43 75
43 76
43 79
43 80
43 82
43 83
43 89
43 90
43 92
43 93
43 94
43 95
43 96
44 47
44 48
44 50
44 51
44 53
44 57
44 59
44 60
44 61
44 62
44 64
44 65
44 67
44 68
44 72
44 73
44 74
44 75
44 81
44 85
44 86
44 87
44 89
44 92
44 93
44 94
44 96
44 97
44 99
45 48
45 49
45 51
45 53
45 54
45 56
45 59
45 62
45 66
45 68
45 69
45 73
45 79
45 81
45 83
45 85
45 86
45 87
45 93
45 96
46 47
46 48
46 52
46 53
46 54
46 55
46 58
46 59
46 61
46 63
46 65
46 67
46 68
46 72
46 73
46 74
46 76
46 77
46 79
46 80
46 84
46 85
46 87
46 88
46 89
46 90
46 91
46 92
46 94
46 95
46 96
46 100
47 49
47 50
47 51
47 52
47 54
47 55
47 56
47 57
47 59
47 61
47 66
47 73
47 75
47 77
47 78
47 81
47 82
47 86
47 87
47 88
47 91
47 92
47 94
47 95
47 96
47 99
48 50
48 51
48 54
48 61
48 62
48 63
48 64
48 67
48 69
48 71
48 77
48 78
48 82
48 83
48 85
48 86
48 88
48 92
48 95
48 97
48 98
48 99
48 100
49 50
49 51
49 59
49 60
49 61
49 63
49 64
49 65
49 69
49 71
49 75
49 79
49 82
49 84
49 85
49 94
49 96
49 97
49 100
50 51
50 53
50 55
50 58
50 60
50 61
50 63
50 66
50 67
50 75
50 76
50 77
50 81
50 82
50 83
50 85
50 89
50 93
50 95
50 96
50 97
50 98
51 54
51 56
51 58
51 61
51 63
51 64
51 66
51 67
51 68
51 69
51 70
51 72
51 76
51 78
51 79
51 83
51 84
51 85
51 86
51 92
51 93
51 95
51 96
51 97
51 98
51 99
52 56
52 57
52 61
52 63
52 64
52 65
52 66
52 68
52 69
52 71
52 72
52 76
52 77
52 78
52 79
52 81
52 83
52 84
52 88
52 90
52 91
52 93
52 94
52 97
52 99
53 54
53 58
53 59
53 60
53 61
53 62
53 64
53 66
53 67
53 69
53 70
53 71
53 78
53 79
53 80
53 82
53 83
53 84
53 85
53 87
53 91
53 94
53 97
53 99
53 100
54 55
54 59
54 61
54 64
54 66
54 68
54 69
54 70
54 73
54 75
54 76
54 79
54 82
54 83
54 84
54 86
54 91
54 93
54 98
54 100
55 56
55 57
55 58
55 60
55 63
55 65
55 66
55 67
55 70
55 71
55 73
55 75
55 76
55 78
55 80
55 83
55 84
55 86
55 92
55 93
55 95
55 96
55 97
55 100
56 57
56 61
56 66
56 69
56 71
56 75
56 76
56 78
56 79
56 82
56 85
56 87
56 95
56 96
56 99
57 60
57 61
57 63
57 64
57 65
57 69
57 70
57 71
57 72
57 74
57 76
57 78
57 79
57 80
57 84
57 85
57 86
57 87
57 90
57 91
57 93
57 97
57 98
58 60
58 61
58 65
58 66
58 67
58 69
58 70
58 71
58 72
58 74
58 75
58 76
58 77
58 79
58 81
58 84
58 85
58 87
58 88
58 89
58 94
58 95
58 97
58 98
58 99
59 60
59 61
59 62
59 63
59 65
59 68
59 73
59 74
59 75
59 81
59 82
59 84
59 85
59 93
59 94
59 96
59 99
60 61
60 63
60 64
60 65
60 67
60 72
60 73
60 74
60 77
60 78
60 79
60 82
60 86
60 91
60 92
60 96
60 97
60 99
60 100
61 64
61 65
61 66
61 69
61 70
61 72
61 73
61 79
61 80
61 84
61 86
61 88
61 91
61 93
61 95
61 96
61 98
61 99
62 63
62 65
62 67
62 68
62 69
62 70
62 73
62 74
62 81
62 82
62 83
62 84
62 86
62 87
62 89
62 90
62 91
62 92
62 93
62 96
62 97
62 100
63 66
63 68
63 69
63 70
63 71
63 77
63 79
63 81
63 82
63 83
63 85
63 90
63 91
63 92
63 97
63 99
63 100
64 65
64 66
64 67
64 68
64 70
64 71
64 73
64 74
64 82
64 83
64 85
64 86
64 87
64 91
64 94
64 96
64 97
64 99
64 100
65 68
65 69
65 72
65 74
65 76
65 78
65 79
65 81
65 82
65 83
65 85
65 86
65 87
65 92
65 93
65 95
65 97
65 100
66 67
66 68
66 69
66 71
66 75
66 78
66 79
66 81
66 82
66 85
66 87
66 88
66 90
66 91
66 92
66 93
66 95
66 96
66 99
67 69
67 71
67 72
67 73
67 76
67 80
67 84
67 85
67 86
67 87
67 88
67 89
67 90
67 92
67 93
67 94
67 99
67 100
68 69
68 70
68 71
68 73
68 76
68 77
68 78
68 79
68 81
68 84
68 85
68 87
68 89
68 90
68 91
68 93
68 98
68 99
68 100
69 72
69 74
69 76
69 77
69 79
69 82
69 86
69 87
69 90
69 91
69 94
69 97
69 98
70 71
70 73
70 74
70 75
70 77
70 78
70 79
70 80
70 81
70 82
70 85
70 87
70 88
70 90
70 91
70 93
70 94
70 96
70 97
70 99
71 72
71 75
71 77
71 81
71 82
71 83
71 87
71 88
71 94
71 96
71 98
72 75
72 77
72 79
72 80
72 82
72 84
72 87
72 91
72 94
72 95
72 96
72 98
73 74
73 76
73 79
73 81
73 82
73 84
73 88
73 90
73 93
73 94
73 96
73 97
73 98
73 99
73 100
74 79
74 81
74 82
74 85
74 88
74 89
74 90
74 91
74 92
74 93
74 94
74 96
74 100
75 76
75 79
75 80
75 82
75 84
75 85
75 92
75 94
75 96
75 99
76 86
76 93
76 94
76 96
76 97
76 98
76 99
76 100
77 78
77 81
77 84
77 85
77 86
77 88
77 91
77 94
77 98
77 100
78 79
78 80
78 85
78 89
78 91
78 93
78 95
78 97
78 98
78 99
79 80
79 81
79 82
79 84
79 85
79 88
79 93
79 94
79 96
79 97
79 98
79 100
80 81
80 84
80 87
80 90
80 92
80 95
80 96
80 98
80 99
80 100
81 82
81 84
81 86
81 91
81 95
81 96
81 97
81 98
82 83
82 84
82 85
82 86
82 88
82 89
82 90
82 92
82 97
82 98
82 100
83 84
83 85
83 87
83 88
83 91
83 93
83 94
83 95
83 98
83 99
84 85
84 86
84 87
84 92
84 93
84 95
84 96
84 97
84 98
84 100
85 86
85 87
85 94
85 98
85 99
86 88
86 89
86 91
86 92
86 96
86 97
86 98
86 100
87 91
87 92
87 93
87 96
87 98
87 99
88 89
88 90
88 91
88 92
88 95
88 96
88 97
88 98
88 99
89 90
89 92
89 93
89 94
89 95
89 97
89 98
89 100
90 93
90 94
90 96
90 97
90 98
90 99
90 100
91 93
91 99
92 94
92 95
92 97
92 99
93 95
93 96
93 99
93 100
94 97
94 100
95 96
95 98
95 100
96 98
96 99
97 100
99 100
